nCaps = 10;
task = [9,10];
noAgents = 4;
capabilities = [{10,9},{10,9},{2,4,7,1,8,5,6,3},{}];
isConnected = [|
false,false,false,true |
false,false,false,true |
false,false,false,true |
true,true,true,false |];
